unsat
(forall ((A (_ BitVec 32))
         (B (_ BitVec 1))
         (C (_ BitVec 32))
         (D (_ BitVec 1))
         (E (_ BitVec 70))
         (F (_ BitVec 4))
         (G (_ BitVec 32))
         (H (_ BitVec 4))
         (I (_ BitVec 4))
         (J (_ BitVec 4))
         (K (_ BitVec 1))
         (L (_ BitVec 1))
         (M (_ BitVec 1))
         (N (_ BitVec 1))
         (O (_ BitVec 1))
         (P (_ BitVec 1))
         (Q (_ BitVec 4))
         (R (_ BitVec 1))
         (S (_ BitVec 1))
         (T (_ BitVec 1))
         (U (_ BitVec 1))
         (V (_ BitVec 4))
         (W (_ BitVec 1))
         (X (_ BitVec 4))
         (Y (_ BitVec 1))
         (Z (_ BitVec 1))
         (A1 (_ BitVec 32))
         (B1 (_ BitVec 1))
         (C1 (_ BitVec 1))
         (D1 (_ BitVec 1))
         (E1 (_ BitVec 32))
         (F1 (_ BitVec 1))
         (G1 (_ BitVec 1))
         (H1 (_ BitVec 1))
         (I1 (_ BitVec 32))
         (J1 (_ BitVec 4))
         (K1 (_ BitVec 4))
         (L1 (_ BitVec 1))
         (M1 (_ BitVec 1))
         (N1 (_ BitVec 4))
         (O1 (_ BitVec 1))
         (P1 (_ BitVec 32))
         (Q1 (_ BitVec 1))
         (R1 (_ BitVec 1))
         (S1 (_ BitVec 1))
         (T1 (_ BitVec 1))
         (U1 (_ BitVec 32))
         (V1 (_ BitVec 1))
         (W1 (_ BitVec 1))
         (X1 (_ BitVec 1))
         (Y1 (_ BitVec 1))
         (Z1 (_ BitVec 1))
         (A2 (_ BitVec 1))
         (B2 (_ BitVec 1))
         (C2 (_ BitVec 1))
         (D2 (_ BitVec 1))
         (E2 (_ BitVec 70))
         (F2 (_ BitVec 1))
         (G2 (_ BitVec 1))
         (H2 (_ BitVec 1))
         (I2 (_ BitVec 1))
         (J2 (_ BitVec 1))
         (K2 (_ BitVec 1))
         (L2 (_ BitVec 1))
         (M2 (_ BitVec 1))
         (N2 (_ BitVec 1))
         (O2 (_ BitVec 1))
         (P2 (_ BitVec 1))
         (Q2 (_ BitVec 1))
         (R2 (_ BitVec 1))
         (S2 (_ BitVec 1))
         (T2 (_ BitVec 1))
         (U2 (_ BitVec 1))
         (V2 (_ BitVec 1))
         (W2 (_ BitVec 1))
         (X2 (_ BitVec 1))
         (Y2 (_ BitVec 4))
         (Z2 (_ BitVec 32))
         (A3 (_ BitVec 1))
         (B3 (_ BitVec 32))
         (C3 (_ BitVec 1))
         (D3 (_ BitVec 1))
         (E3 (_ BitVec 1))
         (F3 (_ BitVec 1)))
  (! (let ((a!1 (or (= F3 #b1)
                    (not (= L #b1))
                    (not (= ((_ extract 0 0) Q) #b0))
                    (not (= ((_ extract 2 2) Q) #b0))
                    (not (= ((_ extract 1 1) Q) #b0))
                    (not (= ((_ extract 3 3) Q) #b0))))
           (a!2 (or (= S1 #b0)
                    (not (= L #b1))
                    (not (= ((_ extract 0 0) Q) #b0))
                    (not (= ((_ extract 2 2) Q) #b0))
                    (not (= ((_ extract 1 1) Q) #b0))
                    (not (= ((_ extract 3 3) Q) #b0)))))
     (let ((a!3 (and (or ((_ bit2bool 3) K1)
                         (= S1 #b0)
                         ((_ bit2bool 0) K1)
                         ((_ bit2bool 1) K1)
                         ((_ bit2bool 2) K1)
                         (not (= L #b1)))
                     (or (= S1 #b0) (= (bvnot S) U))
                     (or (= S1 #b0) (not (= O2 #b0)) (not (= J2 #b1)))
                     (or (not (= S #b0)) (not (= C2 #b1)))
                     (or (= S1 #b0)
                         (not (= R #b0))
                         (not (= P #b0))
                         (not (= S #b1)))
                     (or (= O1 #b0) (not (= D1 #b0)) (not (= P #b1)))
                     (or (not (= S #b0)) (not (= F1 #b1)))
                     (or (not (= O1 #b0)) (= S1 #b0))
                     (or ((_ bit2bool 0) W1)
                         (= S1 #b0)
                         ((_ bit2bool 0) Z1)
                         ((_ bit2bool 0) D2)
                         (not (= T1 #b0))
                         (not (= S #b1)))
                     (or (not (= F1 #b1)) (not (= Z1 #b0)))
                     (or (= S1 #b0) (not (= H1 #b0)) (not (= O2 #b0)))
                     (or (= D2 #b0) (not (= F1 #b1)))
                     a!1
                     a!2
                     (or (not (= B1 #b0))
                         (not (= P #b1))
                         (= B #b0)
                         (not (= F1 #b1)))
                     (or (not ((_ bit2bool 1) J1))
                         (not ((_ bit2bool 2) J1))
                         (not ((_ bit2bool 3) J1)))
                     (or (not (= F1 #b1)) (not (= W1 #b1)))
                     (or ((_ bit2bool 3) K1)
                         (= S1 #b0)
                         ((_ bit2bool 0) K1)
                         ((_ bit2bool 1) K1)
                         ((_ bit2bool 2) K1)
                         (not (= F1 #b1)))
                     (or (= G1 #b0) (= A2 #b1))
                     (or (not (= K2 #b0))
                         (not (= P #b1))
                         (= C2 #b1)
                         (not (= F1 #b1))
                         (= K1 Q))
                     (or (not (= D1 #b0)) (not (= K2 #b0)) (not (= C2 #b1)))
                     (or (not (= K2 #b0)) (= I1 U1) (= C2 P) (not (= Z1 #b1)))
                     (or (not (= P #b1))
                         (= C2 #b1)
                         (not (= F1 #b1))
                         (= S1 B)
                         (= K2 #b1))
                     (or ((_ bit2bool 3) K1)
                         (= S1 #b0)
                         ((_ bit2bool 0) K1)
                         ((_ bit2bool 1) K1)
                         ((_ bit2bool 2) K1)
                         (= K1 Q)
                         (not ((_ bit2bool 69) E2)))
                     (or ((_ bit2bool 3) K1)
                         (= S1 #b0)
                         ((_ bit2bool 0) K1)
                         ((_ bit2bool 1) K1)
                         ((_ bit2bool 2) K1)
                         (not (= P #b1))
                         (not ((_ bit2bool 69) E2)))
                     (or (not (= K2 #b0)) (not (= P #b0)) (not (= C2 #b1)))
                     (or ((_ bit2bool 68) E2) (not (= C2 #b1)) (= Z #b0))
                     (or (not (= K2 #b0)) (not (= C2 #b1)) (= A1 A))
                     (or (= Z #b0) (= G U1) (= I1 U1) (= K2 #b1))
                     (or (not (= D1 #b0))
                         (not (bvule #x5 I))
                         (not (= S2 W2))
                         (not (= P W2)))
                     (or (not (= J1 #x0)) (not (= K2 #b0)) (not (= C2 #b1)))
                     (or (not (= S2 #b0)) (not (bvule #x5 I)))
                     (or (not (= O2 #b0)) (= J X))
                     (or (not (= Q1 #b1)) (not (bvule #x5 I)))
                     (or (not (= K2 #b0)) (not (= C2 #b1)) (= H Q))
                     (or ((_ bit2bool 3) K1)
                         (= S1 #b0)
                         ((_ bit2bool 0) K1)
                         ((_ bit2bool 1) K1)
                         ((_ bit2bool 2) K1)
                         (= K1 Q)
                         (= A1 A))
                     (or ((_ bit2bool 3) K1)
                         (= S1 #b0)
                         ((_ bit2bool 0) K1)
                         ((_ bit2bool 1) K1)
                         ((_ bit2bool 2) K1)
                         (not (= C2 #b1))
                         (= ((_ extract 1 1) Q) #b0))
                     (or ((_ bit2bool 3) K1)
                         (= S1 #b0)
                         ((_ bit2bool 0) K1)
                         ((_ bit2bool 1) K1)
                         ((_ bit2bool 2) K1)
                         (not (= B #b0)))
                     (or (= Z #b0) (not (= H #x0)) (not (= C2 #b1)))
                     (or ((_ bit2bool 3) K1)
                         (= S1 #b0)
                         ((_ bit2bool 0) K1)
                         ((_ bit2bool 1) K1)
                         ((_ bit2bool 2) K1)
                         (= I1 U1)))))
       (= (INV!slice!1 A
                       B
                       C
                       D
                       E
                       F
                       G
                       H
                       I
                       J
                       K
                       L
                       M
                       N
                       O
                       P
                       Q
                       R
                       S
                       T
                       U
                       V
                       W
                       X
                       Y
                       Z
                       A1
                       B1
                       C1
                       D1
                       E1
                       F1
                       G1
                       H1
                       I1
                       J1
                       K1
                       L1
                       M1
                       N1
                       O1
                       P1
                       Q1
                       R1
                       S1
                       T1
                       U1
                       V1
                       W1
                       X1
                       Y1
                       Z1
                       A2
                       B2
                       C2
                       D2
                       E2
                       F2
                       G2
                       H2
                       I2
                       J2
                       K2
                       L2
                       M2
                       N2
                       O2
                       P2
                       Q2
                       R2
                       S2
                       T2
                       U2
                       V2
                       W2
                       X2
                       Y2
                       Z2
                       A3
                       B3
                       C3
                       D3
                       E3
                       F3)
          a!3)))
     :weight 0))
